NAME : E-n22-k4
COMMENT : (MyProblem, Min no of trucks: 0, Optimal value: 0)
TYPE : CVRP
DIMENSION : 4
EDGE_WEIGHT_TYPE : EUC_2D
CAPACITY : 100
NODE_COORD_SECTION
1 2 8
2 0 4
3 6 6
4 9 4
DEMAND_SECTION
1 0
2 11
3 70
4 80
DEPOT_SECTION
 1
 -1
EOF